num_offers = 25;
num_halls = 10;
start=[23,28,25,11,21,35,86,86,59,11,72,9,20,45,87,28,4,48,11,17,10,69,2,36,75];
end=[74,42,83,39,45,72,87,98,84,48,84,33,54,95,93,68,72,75,93,67,27,72,52,60,83];
price=[4485,648,2919,1379,490,2909,131,419,1389,786,232,1361,1769,2702,668,2627,6737,522,3124,2775,795,364,2649,1416,520];
requirement=[348,442,217,731,520,264,577,895,524,410,587,766,537,283,653,327,702,895,572,517,347,827,522,339,211];
capacity=[340,935,571,837,964,502,990,945,609,409];
